################### Instance Number: 22
Numero di nodi nella rete: 100
Numero di archi nella rete: 886
Numero di Ordini: 200
########################### CREATION OF THE ILP MODEL ############################
Start TIME to creation of the model: 2016-07-16 19:11:42.130000
FINISH TIME to creation of the model: 2016-07-16 19:12:03.846000
Impiegati 21.7149999142 secondi.
########################### WRITE THE LP MODEL ############################
############################ INIZIO A RISOLVERE IL PROBLEMA ##########################

Gurobi Optimizer version 6.5.1 build v6.5.1rc3 (win64)
Copyright (c) 2016, Gurobi Optimization, Inc.

Read LP format model from file C:\Users\Filippo\AppData\Local\Temp\7664-pulp.lp
Reading time = 1.21 seconds
(null): 21086 rows, 177200 columns, 708800 nonzeros
Optimize a model with 21086 rows, 177200 columns and 708800 nonzeros
Coefficient statistics:
  Matrix range    [1e+00, 1e+01]
  Objective range [3e+01, 3e+03]
  Bounds range    [1e+00, 1e+00]
  RHS range       [1e+00, 2e+02]
Presolve time: 1.29s
Presolved: 21086 rows, 177200 columns, 668600 nonzeros
Variable types: 0 continuous, 177200 integer (177200 binary)

Root relaxation: objective 4.116377e+05, 4240 iterations, 0.21 seconds

    Nodes    |    Current Node    |     Objective Bounds      |     Work
 Expl Unexpl |  Obj  Depth IntInf | Incumbent    BestBd   Gap | It/Node Time

     0     0 411637.674    0  238          - 411637.674      -     -    2s
H    0     0                    636006.54620 411637.674  35.3%     -    2s
H    0     0                    418924.68310 411637.674  1.74%     -    2s
H    0     0                    416676.03180 411637.674  1.21%     -    3s
     0     0 414446.675    0  318 416676.032 414446.675  0.54%     -    4s
     0     0 415091.972    0  309 416676.032 415091.972  0.38%     -    5s
     0     0 415907.710    0  352 416676.032 415907.710  0.18%     -    5s
     0     0 415907.710    0  227 416676.032 415907.710  0.18%     -    8s
     0     0 415907.710    0  286 416676.032 415907.710  0.18%     -    9s
     0     0 415907.710    0  407 416676.032 415907.710  0.18%     -    9s
     0     0 416091.754    0  358 416676.032 416091.754  0.14%     -   10s
     0     0 416091.754    0  136 416676.032 416091.754  0.14%     -   11s
     0     0 416091.754    0  278 416676.032 416091.754  0.14%     -   12s
     0     0 416091.754    0  274 416676.032 416091.754  0.14%     -   12s
     0     0 416119.067    0  371 416676.032 416119.067  0.13%     -   12s
     0     0 416242.379    0  353 416676.032 416242.379  0.10%     -   12s
     0     0 416351.568    0  310 416676.032 416351.568  0.08%     -   13s
     0     0 416351.568    0   66 416676.032 416351.568  0.08%     -   13s
     0     0 416351.568    0  127 416676.032 416351.568  0.08%     -   13s
     0     0 416351.568    0  180 416676.032 416351.568  0.08%     -   13s
     0     0 416351.568    0  134 416676.032 416351.568  0.08%     -   13s
     0     0 416351.568    0  222 416676.032 416351.568  0.08%     -   13s
     0     0 416379.344    0  199 416676.032 416379.344  0.07%     -   14s
     0     0 416379.344    0   64 416676.032 416379.344  0.07%     -   14s
     0     0 416379.344    0  103 416676.032 416379.344  0.07%     -   14s
     0     0 416379.344    0  138 416676.032 416379.344  0.07%     -   14s
     0     0 416379.344    0  192 416676.032 416379.344  0.07%     -   14s
     0     0 416392.469    0  173 416676.032 416392.469  0.07%     -   14s
     0     0 416493.428    0  231 416676.032 416493.428  0.04%     -   14s
     0     0 416493.428    0   61 416676.032 416493.428  0.04%     -   14s
     0     0 416493.428    0  103 416676.032 416493.428  0.04%     -   14s
     0     0 416493.428    0  126 416676.032 416493.428  0.04%     -   14s
     0     0 416493.428    0  178 416676.032 416493.428  0.04%     -   14s
     0     0 416500.805    0  152 416676.032 416500.805  0.04%     -   14s
     0     0 416534.238    0  192 416676.032 416534.238  0.03%     -   14s
     0     0 416534.238    0   50 416676.032 416534.238  0.03%     -   14s
     0     0 416534.238    0   66 416676.032 416534.238  0.03%     -   14s
     0     0 416534.238    0  103 416676.032 416534.238  0.03%     -   14s
     0     0 416534.238    0  120 416676.032 416534.238  0.03%     -   14s
     0     0 416534.238    0  100 416676.032 416534.238  0.03%     -   14s
     0     0 416534.238    0  112 416676.032 416534.238  0.03%     -   14s
     0     0 416551.405    0  127 416676.032 416551.405  0.03%     -   14s
     0     0 416569.508    0  114 416676.032 416569.508  0.03%     -   14s
     0     0 416569.508    0   44 416676.032 416569.508  0.03%     -   14s
     0     0 416569.508    0   66 416676.032 416569.508  0.03%     -   14s
     0     0 416569.508    0   85 416676.032 416569.508  0.03%     -   14s
     0     0 416569.508    0   96 416676.032 416569.508  0.03%     -   14s
     0     0 416569.508    0   90 416676.032 416569.508  0.03%     -   14s
     0     0 416573.592    0  119 416676.032 416573.592  0.02%     -   14s
     0     0 416582.283    0  123 416676.032 416582.283  0.02%     -   14s
     0     0 416592.580    0   87 416676.032 416592.580  0.02%     -   14s
     0     0 416605.024    0   85 416676.032 416605.024  0.02%     -   14s
     0     0 416609.416    0   83 416676.032 416609.416  0.02%     -   14s
     0     0 416613.751    0   86 416676.032 416613.751  0.01%     -   14s
     0     0 416619.786    0   87 416676.032 416619.786  0.01%     -   14s
     0     0 416619.786    0   39 416676.032 416619.786  0.01%     -   14s
     0     0 416619.786    0   51 416676.032 416619.786  0.01%     -   14s
     0     0 416619.786    0   71 416676.032 416619.786  0.01%     -   14s
     0     0 416619.786    0   90 416676.032 416619.786  0.01%     -   14s
     0     0 416619.786    0   78 416676.032 416619.786  0.01%     -   14s
     0     0 416619.786    0   79 416676.032 416619.786  0.01%     -   14s
     0     0 416619.786    0   80 416676.032 416619.786  0.01%     -   14s
     0     0 416628.574    0   77 416676.032 416628.574  0.01%     -   14s
     0     0 416635.357    0   87 416676.032 416635.357  0.01%     -   14s

Cutting planes:
  Gomory: 3
  Cover: 46
  Clique: 3
  MIR: 28
  GUB cover: 7
  Mod-K: 1

Explored 0 nodes (18987 simplex iterations) in 15.01 seconds
Thread count was 4 (of 4 available processors)

Optimal solution found (tolerance 1.00e-04)
Best objective 4.166760318000e+05, best bound 4.166353565757e+05, gap 0.0098%

Wrote result file 'C:\Users\Filippo\AppData\Local\Temp\7664-pulp.sol'

('Status:', 'Optimal')
('Total Cost of Ingredients per can = ', 416676.0318000001)
